c leafs=62, vars=15, seed=1, tickle=1, pretickle_path=1
p cnf 787 2131                                                                
e 16 17 18 19 20 21 22 23 24 25 26 27 28 29 30 31 32 33 34 35 36 37 38 39 40 41 42 43 44 45 46 47 48 49 50 51 52 53 54 55 56 57 58 59 60 61 62 63 64 65 66 67 68 69 70 71 72 73 74 75 76 77  0
a 1 2 3 4 5 6 7 8 9 10 11 12 13 14 15  0
e 78 79 80 81 82 83 84 85 86 87 88 89 90 91 92 93 94 95 96 97 98 99 100 101 102 103 104 105 106 107 108 109 110 111 112 113 114 115 116 117 118 119 120 121 122 123 124 125 126 127 128 129 130 131 132 133 134 135 136 137 138 139 140 141 142 143 144 145 146 147 148 149 150 151 152 153 154 155 156 157 158 159 160 161 162 163 164 165 166 167 168 169 170 171 172 173 174 175 176 177 178 179 180 181 182 183 184 185 186 187 188 189 190 191 192 193 194 195 196 197 198 199 200 201 202 203 204 205 206 207 208 209 210 211 212 213 214 215 216 217 218 219 220 221 222 223 224 225 226 227 228 229 230 231 232 233 234 235 236 237 238 239 240 241 242 243 244 245 246 247 248 249 250 251 252 253 254 255 256 257 258 259 260 261 262 263 264 265 266 267 268 269 270 271 272 273 274 275 276 277 278 279 280 281 282 283 284 285 286 287 288 289 290 291 292 293 294 295 296 297 298 299 300 301 302 303 304 305 306 307 308 309 310 311 312 313 314 315 316 317 318 319 320 321 322 323 324 325 326 327 328 329 330 331 332 333 334 335 336 337 338 339 340 341 342 343 344 345 346 347 348 349 350 351 352 353 354 355 356 357 358 359 360 361 362 363 364 365 366 367 368 369 370 371 372 373 374 375 376 377 378 379 380 381 382 383 384 385 386 387 388 389 390 391 392 393 394 395 396 397 398 399 400 401 402 403 404 405 406 407 408 409 410 411 412 413 414 415 416 417 418 419 420 421 422 423 424 425 426 427 428 429 430 431 432 433 434 435 436 437 438 439 440 441 442 443 444 445 446 447 448 449 450 451 452 453 454 455 456 457 458 459 460 461 462 463 464 465 466 467 468 469 470 471 472 473 474 475 476 477 478 479 480 481 482 483 484 485 486 487 488 489 490 491 492 493 494 495 496 497 498 499 500 501 502 503 504 505 506 507 508 509 510 511 512 513 514 515 516 517 518 519 520 521 522 523 524 525 526 527 528 529 530 531 532 533 534 535 536 537 538 539 540 541 542 543 544 545 546 547 548 549 550 551 552 553 554 555 556 557 558 559 560 561 562 563 564 565 566 567 568 569 570 571 572 573 574 575 576 577 578 579 580 581 582 583 584 585 586 587 588 589 590 591 592 593 594 595 596 597 598 599 600 601 602 603 604 605 606 607 608 609 610 611 612 613 614 615 616 617 618 619 620 621 622 623 624 625 626 627 628 629 630 631 632 633 634 635 636 637 638 639 640 641 642 643 644 645 646 647 648 649 650 651 652 653 654 655 656 657 658 659 660 661 662 663 664 665 666 667 668 669 670 671 672 673 674 675 676 677 678 679 680 681 682 683 684 685 686 687 688 689 690 691 692 693 694 695 696 697 698 699 700 701 702 703 704 705 706 707 708 709 710 711 712 713 714 715 716 717 718 719 720 721 722 723 724 725 726 727 728 729 730 731 732 733 734 735 736 737 738 739 740 741 742 743 744 745 746 747 748 749 750 751 752 753 754 755 756 757 758 759 760 761 762 763 764 765 766 767 768 769 770 771 772 773 774 775 776 777 778 779 780 781 782 783 784 785 786 787  0
787  0
78 -10 -56  0
-78 10  0
-78 56  0
79 56 13  0
-79 -56  0
-79 -13  0
80 -8 -57  0
-80 8  0
-80 57  0
81 57 -4  0
-81 -57  0
-81 4  0
82 -6 -54  0
-82 6  0
-82 54  0
83 54 8  0
-83 -54  0
-83 -8  0
84 55 9  0
-84 -55  0
-84 -9  0
85 -12 -55  0
-85 12  0
-85 55  0
-86 -61 -6  0
86 61  0
86 6  0
-87 -11 61  0
87 11  0
87 -61  0
-88 -3 60  0
88 3  0
88 -60  0
-89 -60 -1  0
89 60  0
89 1  0
90 15 -59  0
-90 -15  0
-90 59  0
91 59 -5  0
-91 -59  0
-91 5  0
92 -2 -58  0
-92 2  0
-92 58  0
93 58 -12  0
-93 -58  0
-93 12  0
-94 -47 -5  0
94 47  0
94 5  0
-95 1 47  0
95 -1  0
95 -47  0
96 49 -2  0
-96 -49  0
-96 2  0
97 13 -49  0
-97 -13  0
-97 49  0
98 48 -15  0
-98 -48  0
-98 15  0
99 -11 -48  0
-99 11  0
-99 48  0
-100 13 52  0
100 -13  0
100 -52  0
-101 -52 -10  0
101 52  0
101 10  0
-102 -53 -3  0
102 53  0
102 3  0
-103 4 53  0
103 -4  0
103 -53  0
104 -7 -51  0
-104 7  0
-104 51  0
105 51 -5  0
-105 -51  0
-105 5  0
106 50 15  0
-106 -50  0
-106 -15  0
107 -6 -50  0
-107 6  0
-107 50  0
-108 -71 -8  0
108 71  0
108 8  0
-109 -9 71  0
109 9  0
109 -71  0
-110 -70 -13  0
110 70  0
110 13  0
-111 5 70  0
111 -5  0
111 -70  0
-112 -73 -1  0
112 73  0
112 1  0
-113 2 73  0
113 -2  0
113 -73  0
-114 -72 10  0
114 72  0
114 -10  0
-115 -9 72  0
115 9  0
115 -72  0
-116 -75 -2  0
116 75  0
116 2  0
-117 -5 75  0
117 5  0
117 -75  0
-118 -74 -12  0
118 74  0
118 12  0
-119 4 74  0
119 -4  0
119 -74  0
120 76 -7  0
-120 -76  0
-120 7  0
121 -15 -76  0
-121 15  0
-121 76  0
122 77 -1  0
-122 -77  0
-122 1  0
123 7 -77  0
-123 -7  0
-123 77  0
-124 15 68  0
124 -15  0
124 -68  0
-125 -68 -1  0
125 68  0
125 1  0
-126 10 69  0
126 -10  0
126 -69  0
-127 -69 -13  0
127 69  0
127 13  0
128 66 6  0
-128 -66  0
-128 -6  0
129 8 -66  0
-129 -8  0
-129 66  0
130 11 -67  0
-130 -11  0
-130 67  0
131 67 -3  0
-131 -67  0
-131 3  0
132 4 -63  0
-132 -4  0
-132 63  0
133 63 -5  0
-133 -63  0
-133 5  0
134 12 -62  0
-134 -12  0
-134 62  0
135 62 2  0
-135 -62  0
-135 -2  0
136 65 6  0
-136 -65  0
-136 -6  0
137 -7 -65  0
-137 7  0
-137 65  0
138 9 -64  0
-138 -9  0
-138 64  0
139 64 10  0
-139 -64  0
-139 -10  0
140 9 -29  0
-140 -9  0
-140 29  0
141 29 10  0
-141 -29  0
-141 -10  0
142 28 -1  0
-142 -28  0
-142 1  0
143 11 -28  0
-143 -11  0
-143 28  0
144 -6 -31  0
-144 6  0
-144 31  0
145 31 -2  0
-145 -31  0
-145 2  0
146 10 -30  0
-146 -10  0
-146 30  0
147 30 -12  0
-147 -30  0
-147 12  0
148 26 14  0
-148 -26  0
-148 -14  0
149 -3 -26  0
-149 3  0
-149 26  0
150 27 11  0
-150 -27  0
-150 -11  0
151 14 -27  0
-151 -14  0
-151 27  0
152 24 5  0
-152 -24  0
-152 -5  0
153 7 -24  0
-153 -7  0
-153 24  0
154 25 6  0
-154 -25  0
-154 -6  0
155 -2 -25  0
-155 2  0
-155 25  0
156 16 8  0
-156 -16  0
-156 -8  0
157 -4 -16  0
-157 4  0
-157 16  0
158 -5 -17  0
-158 5  0
-158 17  0
159 17 -10  0
-159 -17  0
-159 10  0
160 -7 -19  0
-160 7  0
-160 19  0
161 19 -2  0
-161 -19  0
-161 2  0
162 12 -18  0
-162 -12  0
-162 18  0
163 18 -15  0
-163 -18  0
-163 15  0
164 -10 -20  0
-164 10  0
-164 20  0
165 20 3  0
-165 -20  0
-165 -3  0
166 21 -1  0
-166 -21  0
-166 1  0
167 2 -21  0
-167 -2  0
-167 21  0
-168 2 22  0
168 -2  0
168 -22  0
-169 -22 -6  0
169 22  0
169 6  0
-170 -23 -4  0
170 23  0
170 4  0
-171 -15 23  0
171 15  0
171 -23  0
172 13 -33  0
-172 -13  0
-172 33  0
173 33 -11  0
-173 -33  0
-173 11  0
174 1 -34  0
-174 -1  0
-174 34  0
175 34 15  0
-175 -34  0
-175 -15  0
176 32 -5  0
-176 -32  0
-176 5  0
177 8 -32  0
-177 -8  0
-177 32  0
178 -8 -38  0
-178 8  0
-178 38  0
179 38 -9  0
-179 -38  0
-179 9  0
180 37 2  0
-180 -37  0
-180 -2  0
181 -7 -37  0
-181 7  0
-181 37  0
182 36 -13  0
-182 -36  0
-182 13  0
183 -3 -36  0
-183 3  0
-183 36  0
184 35 6  0
-184 -35  0
-184 -6  0
185 -10 -35  0
-185 10  0
-185 35  0
-186 -44 11  0
186 44  0
186 -11  0
-187 -14 44  0
187 14  0
187 -44  0
-188 -3 43  0
188 3  0
188 -43  0
-189 -43 -1  0
189 43  0
189 1  0
190 8 -45  0
-190 -8  0
-190 45  0
191 45 15  0
-191 -45  0
-191 -15  0
192 46 10  0
-192 -46  0
-192 -10  0
193 6 -46  0
-193 -6  0
-193 46  0
-194 15 42  0
194 -15  0
194 -42  0
-195 -42 -10  0
195 42  0
195 10  0
-196 -41 -2  0
196 41  0
196 2  0
-197 9 41  0
197 -9  0
197 -41  0
-198 12 39  0
198 -12  0
198 -39  0
-199 -39 11  0
199 39  0
199 -11  0
-200 -1 40  0
200 1  0
200 -40  0
-201 -40 -15  0
201 40  0
201 15  0
-202 4 13  0
202 -4  0
202 -13  0
-203 -13 -4  0
203 13  0
203 4  0
-204 -2 7  0
204 2  0
204 -7  0
-205 -7 2  0
205 7  0
205 -2  0
-206 6 15  0
206 -6  0
206 -15  0
-207 -15 -6  0
207 15  0
207 6  0
-208 -1 3  0
208 1  0
208 -3  0
-209 -3 1  0
209 3  0
209 -1  0
-210 -5 8  0
210 5  0
210 -8  0
-211 -8 5  0
211 8  0
211 -5  0
212 9 1  0
-212 -9  0
-212 -1  0
213 -1 -9  0
-213 1  0
-213 9  0
214 7 2  0
-214 -7  0
-214 -2  0
215 -2 -7  0
-215 2  0
-215 7  0
-216 2 10  0
216 -2  0
216 -10  0
-217 -10 -2  0
217 10  0
217 2  0
218 -11 -15  0
-218 11  0
-218 15  0
219 15 11  0
-219 -15  0
-219 -11  0
220 7 -9  0
-220 -7  0
-220 9  0
221 9 -7  0
-221 -9  0
-221 7  0
-222 -11 5  0
222 11  0
222 -5  0
-223 5 11  0
223 -5  0
223 -11  0
224 -6 -8  0
-224 6  0
-224 8  0
225 8 6  0
-225 -8  0
-225 -6  0
-226 -11 3  0
226 11  0
226 -3  0
-227 -3 11  0
227 3  0
227 -11  0
228 6 -15  0
-228 -6  0
-228 15  0
229 15 -6  0
-229 -15  0
-229 6  0
230 -1 -3  0
-230 1  0
-230 3  0
231 3 1  0
-231 -3  0
-231 -1  0
-232 -1 15  0
232 1  0
232 -15  0
-233 -15 1  0
233 15  0
233 -1  0
-234 -1 10  0
234 1  0
234 -10  0
-235 -10 1  0
235 10  0
235 -1  0
-236 -8 -3  0
236 8  0
236 3  0
-237 3 8  0
237 -3  0
237 -8  0
-238 -10 -1  0
238 10  0
238 1  0
-239 1 10  0
239 -1  0
239 -10  0
-240 -13 8  0
240 13  0
240 -8  0
-241 -8 13  0
241 8  0
241 -13  0
-242 -11 -3  0
242 11  0
242 3  0
-243 3 11  0
243 -3  0
243 -11  0
244 -6 -12  0
-244 6  0
-244 12  0
245 12 6  0
-245 -12  0
-245 -6  0
-246 -13 4  0
246 13  0
246 -4  0
-247 -4 13  0
247 4  0
247 -13  0
-248 78 79  0
248 -78  0
248 -79  0
-249 80 81  0
249 -80  0
249 -81  0
-250 82 83  0
250 -82  0
250 -83  0
-251 84 85  0
251 -84  0
251 -85  0
252 -86 -87  0
-252 86  0
-252 87  0
253 -88 -89  0
-253 88  0
-253 89  0
-254 90 91  0
254 -90  0
254 -91  0
-255 92 93  0
255 -92  0
255 -93  0
256 -94 -95  0
-256 94  0
-256 95  0
-257 96 97  0
257 -96  0
257 -97  0
-258 98 99  0
258 -98  0
258 -99  0
259 -100 -101  0
-259 100  0
-259 101  0
260 -102 -103  0
-260 102  0
-260 103  0
-261 104 105  0
261 -104  0
261 -105  0
-262 106 107  0
262 -106  0
262 -107  0
263 -108 -109  0
-263 108  0
-263 109  0
264 -110 -111  0
-264 110  0
-264 111  0
265 -112 -113  0
-265 112  0
-265 113  0
266 -114 -115  0
-266 114  0
-266 115  0
267 -116 -117  0
-267 116  0
-267 117  0
268 -118 -119  0
-268 118  0
-268 119  0
-269 120 121  0
269 -120  0
269 -121  0
-270 122 123  0
270 -122  0
270 -123  0
271 -124 -125  0
-271 124  0
-271 125  0
272 -126 -127  0
-272 126  0
-272 127  0
-273 128 129  0
273 -128  0
273 -129  0
-274 130 131  0
274 -130  0
274 -131  0
-275 132 133  0
275 -132  0
275 -133  0
-276 134 135  0
276 -134  0
276 -135  0
-277 136 137  0
277 -136  0
277 -137  0
-278 138 139  0
278 -138  0
278 -139  0
-279 140 141  0
279 -140  0
279 -141  0
-280 142 143  0
280 -142  0
280 -143  0
-281 144 145  0
281 -144  0
281 -145  0
-282 146 147  0
282 -146  0
282 -147  0
-283 148 149  0
283 -148  0
283 -149  0
-284 150 151  0
284 -150  0
284 -151  0
-285 152 153  0
285 -152  0
285 -153  0
-286 154 155  0
286 -154  0
286 -155  0
-287 156 157  0
287 -156  0
287 -157  0
-288 158 159  0
288 -158  0
288 -159  0
-289 160 161  0
289 -160  0
289 -161  0
-290 162 163  0
290 -162  0
290 -163  0
-291 164 165  0
291 -164  0
291 -165  0
-292 166 167  0
292 -166  0
292 -167  0
293 -168 -169  0
-293 168  0
-293 169  0
294 -170 -171  0
-294 170  0
-294 171  0
-295 172 173  0
295 -172  0
295 -173  0
-296 174 175  0
296 -174  0
296 -175  0
-297 176 177  0
297 -176  0
297 -177  0
-298 178 179  0
298 -178  0
298 -179  0
-299 180 181  0
299 -180  0
299 -181  0
-300 182 183  0
300 -182  0
300 -183  0
-301 184 185  0
301 -184  0
301 -185  0
302 -186 -187  0
-302 186  0
-302 187  0
303 -188 -189  0
-303 188  0
-303 189  0
-304 190 191  0
304 -190  0
304 -191  0
-305 192 193  0
305 -192  0
305 -193  0
306 -194 -195  0
-306 194  0
-306 195  0
307 -196 -197  0
-307 196  0
-307 197  0
308 -198 -199  0
-308 198  0
-308 199  0
309 -200 -201  0
-309 200  0
-309 201  0
310 -202 -203  0
-310 202  0
-310 203  0
311 -204 -205  0
-311 204  0
-311 205  0
312 -206 -207  0
-312 206  0
-312 207  0
313 -208 -209  0
-313 208  0
-313 209  0
314 -210 -211  0
-314 210  0
-314 211  0
-315 212 213  0
315 -212  0
315 -213  0
-316 214 215  0
316 -214  0
316 -215  0
317 -216 -217  0
-317 216  0
-317 217  0
-318 218 219  0
318 -218  0
318 -219  0
-319 220 221  0
319 -220  0
319 -221  0
320 -15 -222  0
-320 15  0
-320 222  0
321 15 -223  0
-321 -15  0
-321 223  0
-322 224 225  0
322 -224  0
322 -225  0
323 -226 -227  0
-323 226  0
-323 227  0
-324 228 229  0
324 -228  0
324 -229  0
-325 230 231  0
325 -230  0
325 -231  0
326 -232 -233  0
-326 232  0
-326 233  0
327 -234 -235  0
-327 234  0
-327 235  0
328 -236 -237  0
-328 236  0
-328 237  0
329 -238 -239  0
-329 238  0
-329 239  0
330 -240 -241  0
-330 240  0
-330 241  0
331 -242 -243  0
-331 242  0
-331 243  0
-332 244 245  0
332 -244  0
332 -245  0
333 -246 -247  0
-333 246  0
-333 247  0
334 -248 -249  0
-334 248  0
-334 249  0
335 248 249  0
-335 -248  0
-335 -249  0
336 -250 -251  0
-336 250  0
-336 251  0
337 250 251  0
-337 -250  0
-337 -251  0
338 -252 -253  0
-338 252  0
-338 253  0
339 253 252  0
-339 -253  0
-339 -252  0
340 -254 -255  0
-340 254  0
-340 255  0
341 254 255  0
-341 -254  0
-341 -255  0
-342 257 258  0
342 -257  0
342 -258  0
-343 -258 -257  0
343 258  0
343 257  0
-344 259 260  0
344 -259  0
344 -260  0
-345 -259 -260  0
345 259  0
345 260  0
-346 261 262  0
346 -261  0
346 -262  0
-347 -261 -262  0
347 261  0
347 262  0
-348 263 264  0
348 -263  0
348 -264  0
-349 -263 -264  0
349 263  0
349 264  0
-350 265 266  0
350 -265  0
350 -266  0
-351 -265 -266  0
351 265  0
351 266  0
-352 267 268  0
352 -267  0
352 -268  0
-353 -267 -268  0
353 267  0
353 268  0
-354 269 270  0
354 -269  0
354 -270  0
-355 -269 -270  0
355 269  0
355 270  0
-356 271 272  0
356 -271  0
356 -272  0
-357 -271 -272  0
357 271  0
357 272  0
-358 273 274  0
358 -273  0
358 -274  0
-359 -273 -274  0
359 273  0
359 274  0
-360 275 276  0
360 -275  0
360 -276  0
-361 -276 -275  0
361 276  0
361 275  0
-362 277 278  0
362 -277  0
362 -278  0
-363 -277 -278  0
363 277  0
363 278  0
-364 279 280  0
364 -279  0
364 -280  0
-365 -279 -280  0
365 279  0
365 280  0
-366 281 282  0
366 -281  0
366 -282  0
-367 -281 -282  0
367 281  0
367 282  0
-368 283 284  0
368 -283  0
368 -284  0
-369 -284 -283  0
369 284  0
369 283  0
-370 285 286  0
370 -285  0
370 -286  0
-371 -285 -286  0
371 285  0
371 286  0
372 -287 -288  0
-372 287  0
-372 288  0
373 288 287  0
-373 -288  0
-373 -287  0
374 -289 -290  0
-374 289  0
-374 290  0
375 289 290  0
-375 -289  0
-375 -290  0
376 -291 -292  0
-376 291  0
-376 292  0
377 292 291  0
-377 -292  0
-377 -291  0
378 -293 -294  0
-378 293  0
-378 294  0
379 294 293  0
-379 -294  0
-379 -293  0
380 -295 -296  0
-380 295  0
-380 296  0
381 296 295  0
-381 -296  0
-381 -295  0
382 -298 -299  0
-382 298  0
-382 299  0
383 299 298  0
-383 -299  0
-383 -298  0
384 -300 -301  0
-384 300  0
-384 301  0
385 301 300  0
-385 -301  0
-385 -300  0
386 -302 -303  0
-386 302  0
-386 303  0
387 303 302  0
-387 -303  0
-387 -302  0
388 -304 -305  0
-388 304  0
-388 305  0
389 305 304  0
-389 -305  0
-389 -304  0
390 -306 -307  0
-390 306  0
-390 307  0
391 307 306  0
-391 -307  0
-391 -306  0
392 -308 -309  0
-392 308  0
-392 309  0
393 309 308  0
-393 -309  0
-393 -308  0
394 7 -310  0
-394 -7  0
-394 310  0
395 -7 -310  0
-395 7  0
-395 310  0
-396 312 313  0
396 -312  0
396 -313  0
397 12 -314  0
-397 -12  0
-397 314  0
398 -12 -314  0
-398 12  0
-398 314  0
-399 12 315  0
399 -12  0
399 -315  0
-400 -12 315  0
400 12  0
400 -315  0
401 -1 -317  0
-401 1  0
-401 317  0
402 1 -317  0
-402 -1  0
-402 317  0
403 5 -318  0
-403 -5  0
-403 318  0
-404 3 319  0
404 -3  0
404 -319  0
-405 -3 319  0
405 3  0
405 -319  0
-406 320 321  0
406 -320  0
406 -321  0
407 7 -323  0
-407 -7  0
-407 323  0
408 -7 -323  0
-408 7  0
-408 323  0
-409 324 325  0
409 -324  0
409 -325  0
410 12 -310  0
-410 -12  0
-410 310  0
411 -12 -310  0
-411 12  0
-411 310  0
-412 5 326  0
412 -5  0
412 -326  0
-413 -5 326  0
413 5  0
413 -326  0
414 -327 -328  0
-414 327  0
-414 328  0
-415 3 329  0
415 -3  0
415 -329  0
-416 -3 329  0
416 3  0
416 -329  0
417 -15 -331  0
-417 15  0
-417 331  0
418 15 -331  0
-418 -15  0
-418 331  0
-419 -12 333  0
419 12  0
419 -333  0
-420 12 333  0
420 -12  0
420 -333  0
-421 7 331  0
421 -7  0
421 -331  0
-422 -7 331  0
422 7  0
422 -331  0
-423 334 335  0
423 -334  0
423 -335  0
-424 336 337  0
424 -336  0
424 -337  0
-425 338 339  0
425 -338  0
425 -339  0
-426 340 341  0
426 -340  0
426 -341  0
427 -342 -343  0
-427 342  0
-427 343  0
428 -344 -345  0
-428 344  0
-428 345  0
429 -346 -347  0
-429 346  0
-429 347  0
430 -348 -349  0
-430 348  0
-430 349  0
431 -350 -351  0
-431 350  0
-431 351  0
432 -352 -353  0
-432 352  0
-432 353  0
433 -354 -355  0
-433 354  0
-433 355  0
434 -356 -357  0
-434 356  0
-434 357  0
435 -358 -359  0
-435 358  0
-435 359  0
436 -360 -361  0
-436 360  0
-436 361  0
437 -362 -363  0
-437 362  0
-437 363  0
438 -364 -365  0
-438 364  0
-438 365  0
439 -366 -367  0
-439 366  0
-439 367  0
440 -368 -369  0
-440 368  0
-440 369  0
441 -370 -371  0
-441 370  0
-441 371  0
-442 372 373  0
442 -372  0
442 -373  0
-443 374 375  0
443 -374  0
443 -375  0
-444 376 377  0
444 -376  0
444 -377  0
-445 378 379  0
445 -378  0
445 -379  0
-446 380 381  0
446 -380  0
446 -381  0
-447 382 383  0
447 -382  0
447 -383  0
-448 384 385  0
448 -384  0
448 -385  0
-449 386 387  0
449 -386  0
449 -387  0
-450 388 389  0
450 -388  0
450 -389  0
-451 390 391  0
451 -390  0
451 -391  0
-452 392 393  0
452 -392  0
452 -393  0
-453 -6 394  0
453 6  0
453 -394  0
-454 6 395  0
454 -6  0
454 -395  0
-455 2 397  0
455 -2  0
455 -397  0
-456 -2 398  0
456 2  0
456 -398  0
457 6 -399  0
-457 -6  0
-457 399  0
458 -6 -400  0
-458 6  0
-458 400  0
-459 -11 401  0
459 11  0
459 -401  0
-460 11 402  0
460 -11  0
460 -402  0
461 10 -404  0
-461 -10  0
-461 404  0
462 -10 -405  0
-462 10  0
-462 405  0
-463 2 407  0
463 -2  0
463 -407  0
-464 -2 408  0
464 2  0
464 -408  0
-465 6 410  0
465 -6  0
465 -410  0
-466 -6 411  0
466 6  0
466 -411  0
-467 4 412  0
467 -4  0
467 -412  0
-468 -4 413  0
468 4  0
468 -413  0
-469 4 414  0
469 -4  0
469 -414  0
-470 -8 415  0
470 8  0
470 -415  0
-471 8 416  0
471 -8  0
471 -416  0
-472 -4 414  0
472 4  0
472 -414  0
-473 -2 417  0
473 2  0
473 -417  0
-474 2 418  0
474 -2  0
474 -418  0
-475 -6 419  0
475 6  0
475 -419  0
-476 6 420  0
476 -6  0
476 -420  0
-477 2 421  0
477 -2  0
477 -421  0
-478 -2 422  0
478 2  0
478 -422  0
479 -423 -424  0
-479 423  0
-479 424  0
-480 425 426  0
480 -425  0
480 -426  0
-481 256 427  0
481 -256  0
481 -427  0
482 -428 -429  0
-482 428  0
-482 429  0
483 -430 -431  0
-483 430  0
-483 431  0
484 -432 -433  0
-484 432  0
-484 433  0
-485 434 435  0
485 -434  0
485 -435  0
486 -436 -437  0
-486 436  0
-486 437  0
-487 438 439  0
487 -438  0
487 -439  0
488 -440 -441  0
-488 440  0
-488 441  0
-489 442 443  0
489 -442  0
489 -443  0
490 -444 -445  0
-490 444  0
-490 445  0
-491 446 297  0
491 -446  0
491 -297  0
492 -447 -448  0
-492 447  0
-492 448  0
493 -449 -450  0
-493 449  0
-493 450  0
-494 451 452  0
494 -451  0
494 -452  0
495 -453 -454  0
-495 453  0
-495 454  0
496 -455 -456  0
-496 455  0
-496 456  0
-497 457 458  0
497 -457  0
497 -458  0
498 -459 -460  0
-498 459  0
-498 460  0
-499 461 462  0
499 -461  0
499 -462  0
500 -463 -464  0
-500 463  0
-500 464  0
501 -465 -466  0
-501 465  0
-501 466  0
502 -467 -468  0
-502 467  0
-502 468  0
503 -470 -471  0
-503 470  0
-503 471  0
504 -473 -474  0
-504 473  0
-504 474  0
505 -475 -476  0
-505 475  0
-505 476  0
506 -477 -478  0
-506 477  0
-506 478  0
-507 479 480  0
507 -479  0
507 -480  0
-508 -480 -479  0
508 480  0
508 479  0
-509 481 482  0
509 -481  0
509 -482  0
-510 -482 -481  0
510 482  0
510 481  0
-511 483 484  0
511 -483  0
511 -484  0
-512 -483 -484  0
512 483  0
512 484  0
-513 485 486  0
513 -485  0
513 -486  0
-514 -486 -485  0
514 486  0
514 485  0
515 -487 -488  0
-515 487  0
-515 488  0
516 487 488  0
-516 -487  0
-516 -488  0
517 -489 -490  0
-517 489  0
-517 490  0
518 489 490  0
-518 -489  0
-518 -490  0
519 -491 -492  0
-519 491  0
-519 492  0
520 492 491  0
-520 -492  0
-520 -491  0
521 -493 -494  0
-521 493  0
-521 494  0
522 494 493  0
-522 -494  0
-522 -493  0
-523 396 496  0
523 -396  0
523 -496  0
-524 -396 -496  0
524 396  0
524 496  0
525 -403 -499  0
-525 403  0
-525 499  0
526 499 -406  0
-526 -499  0
-526 406  0
-527 12 500  0
527 -12  0
527 -500  0
-528 1 -500  0
528 -1  0
528 500  0
-529 -1 500  0
529 1  0
529 -500  0
-530 -12 500  0
530 12  0
530 -500  0
-531 -496 409  0
531 496  0
531 -409  0
-532 -409 496  0
532 409  0
532 -496  0
-533 15 501  0
533 -15  0
533 -501  0
-534 3 501  0
534 -3  0
534 -501  0
-535 -3 -501  0
535 3  0
535 501  0
-536 -15 501  0
536 15  0
536 -501  0
-537 -4 503  0
537 4  0
537 -503  0
-538 4 503  0
538 -4  0
538 -503  0
-539 -319 503  0
539 319  0
539 -503  0
-540 -15 505  0
540 15  0
540 -505  0
-541 -3 -505  0
541 3  0
541 505  0
-542 3 505  0
542 -3  0
542 -505  0
-543 15 505  0
543 -15  0
543 -505  0
544 1 -506  0
-544 -1  0
-544 506  0
545 -1 506  0
-545 1  0
-545 -506  0
-546 12 506  0
546 -12  0
546 -506  0
-547 -12 506  0
547 12  0
547 -506  0
548 -507 -508  0
-548 507  0
-548 508  0
549 -509 -510  0
-549 509  0
-549 510  0
550 -511 -512  0
-550 511  0
-550 512  0
551 -513 -514  0
-551 513  0
-551 514  0
-552 515 516  0
552 -515  0
552 -516  0
-553 517 518  0
553 -517  0
553 -518  0
-554 519 520  0
554 -519  0
554 -520  0
-555 521 522  0
555 -521  0
555 -522  0
556 -523 -524  0
-556 523  0
-556 524  0
-557 525 526  0
557 -525  0
557 -526  0
558 -528 -529  0
-558 528  0
-558 529  0
559 -531 -532  0
-559 531  0
-559 532  0
560 -534 -535  0
-560 534  0
-560 535  0
561 -469 -537  0
-561 469  0
-561 537  0
562 -472 -538  0
-562 472  0
-562 538  0
563 -541 -542  0
-563 541  0
-563 542  0
-564 544 545  0
564 -544  0
564 -545  0
565 -548 -549  0
-565 548  0
-565 549  0
-566 550 551  0
566 -550  0
566 -551  0
-567 552 553  0
567 -552  0
567 -553  0
568 -554 -555  0
-568 554  0
-568 555  0
569 11 -556  0
-569 -11  0
-569 556  0
570 -11 -556  0
-570 11  0
-570 556  0
-571 316 556  0
571 -316  0
571 -556  0
572 -8 -557  0
-572 8  0
-572 557  0
573 -3 -557  0
-573 3  0
-573 557  0
574 3 -557  0
-574 -3  0
-574 557  0
575 8 -557  0
-575 -8  0
-575 557  0
-576 -9 558  0
576 9  0
576 -558  0
-577 9 -558  0
577 -9  0
577 558  0
-578 11 560  0
578 -11  0
578 -560  0
-579 -11 -560  0
579 11  0
579 560  0
-580 -12 561  0
580 12  0
580 -561  0
-581 12 562  0
581 -12  0
581 -562  0
-582 11 563  0
582 -11  0
582 -563  0
-583 -11 -563  0
583 11  0
583 563  0
-584 9 564  0
584 -9  0
584 -564  0
-585 -9 -564  0
585 9  0
585 564  0
-586 11 559  0
586 -11  0
586 -559  0
-587 -11 559  0
587 11  0
587 -559  0
-588 316 559  0
588 -316  0
588 -559  0
-589 565 566  0
589 -565  0
589 -566  0
-590 -565 -566  0
590 565  0
590 566  0
-591 567 568  0
591 -567  0
591 -568  0
-592 -567 -568  0
592 567  0
592 568  0
-593 3 569  0
593 -3  0
593 -569  0
-594 -3 570  0
594 3  0
594 -570  0
-595 -3 569  0
595 3  0
595 -569  0
-596 3 570  0
596 -3  0
596 -570  0
597 14 -573  0
-597 -14  0
-597 573  0
598 -14 -574  0
-598 14  0
-598 574  0
599 14 -574  0
-599 -14  0
-599 574  0
600 -14 -573  0
-600 14  0
-600 573  0
601 -576 -577  0
-601 576  0
-601 577  0
602 -578 -579  0
-602 578  0
-602 579  0
603 -580 -581  0
-603 580  0
-603 581  0
604 -582 -583  0
-604 582  0
-604 583  0
605 -584 -585  0
-605 584  0
-605 585  0
-606 -3 586  0
606 3  0
606 -586  0
-607 3 587  0
607 -3  0
607 -587  0
-608 -3 587  0
608 3  0
608 -587  0
-609 3 586  0
609 -3  0
609 -586  0
610 -589 -590  0
-610 589  0
-610 590  0
611 -591 -592  0
-611 591  0
-611 592  0
612 -593 -594  0
-612 593  0
-612 594  0
613 -595 -596  0
-613 595  0
-613 596  0
-614 597 598  0
614 -597  0
614 -598  0
-615 599 600  0
615 -599  0
615 -600  0
-616 -12 601  0
616 12  0
616 -601  0
-617 12 601  0
617 -12  0
617 -601  0
-618 -15 602  0
618 15  0
618 -602  0
-619 15 602  0
619 -15  0
619 -602  0
-620 603 319  0
620 -603  0
620 -319  0
-621 15 604  0
621 -15  0
621 -604  0
-622 -15 604  0
622 15  0
622 -604  0
-623 -12 605  0
623 12  0
623 -605  0
-624 12 605  0
624 -12  0
624 -605  0
625 -606 -607  0
-625 606  0
-625 607  0
626 -608 -609  0
-626 608  0
-626 609  0
627 -610 -611  0
-627 610  0
-627 611  0
628 -311 -612  0
-628 311  0
-628 612  0
-629 613 -316  0
629 -613  0
629 316  0
630 8 -614  0
-630 -8  0
-630 614  0
631 -8 -614  0
-631 8  0
-631 614  0
632 -322 -615  0
-632 322  0
-632 615  0
633 -527 -616  0
-633 527  0
-633 616  0
634 -530 -617  0
-634 530  0
-634 617  0
635 -533 -618  0
-635 533  0
-635 618  0
636 -536 -619  0
-636 536  0
-636 619  0
637 -620 -539  0
-637 620  0
-637 539  0
638 -540 -621  0
-638 540  0
-638 621  0
639 -543 -622  0
-639 543  0
-639 622  0
640 -623 -546  0
-640 623  0
-640 546  0
641 -547 -624  0
-641 547  0
-641 624  0
-642 -316 625  0
642 316  0
642 -625  0
-643 626 -316  0
643 -626  0
643 316  0
-644 628 497  0
644 -628  0
644 -497  0
645 -571 -629  0
-645 571  0
-645 629  0
-646 572 630  0
646 -572  0
646 -630  0
-647 631 575  0
647 -631  0
647 -575  0
648 498 -632  0
-648 -498  0
-648 632  0
-649 -6 633  0
649 6  0
649 -633  0
-650 6 634  0
650 -6  0
650 -634  0
-651 -2 635  0
651 2  0
651 -635  0
-652 2 636  0
652 -2  0
652 -636  0
-653 -10 637  0
653 10  0
653 -637  0
-654 10 637  0
654 -10  0
654 -637  0
-655 -330 637  0
655 330  0
655 -637  0
-656 2 638  0
656 -2  0
656 -638  0
-657 -2 639  0
657 2  0
657 -639  0
-658 -6 640  0
658 6  0
658 -640  0
-659 6 641  0
659 -6  0
659 -641  0
660 -642 -588  0
-660 642  0
-660 588  0
-661 643 497  0
661 -643  0
661 -497  0
-662 -497 645  0
662 497  0
662 -645  0
663 6 -646  0
-663 -6  0
-663 646  0
664 -6 -647  0
-664 6  0
-664 647  0
665 -649 -650  0
-665 649  0
-665 650  0
666 -651 -652  0
-666 651  0
-666 652  0
-667 2 653  0
667 -2  0
667 -653  0
-668 -2 654  0
668 2  0
668 -654  0
-669 2 654  0
669 -2  0
669 -654  0
-670 -2 653  0
670 2  0
670 -653  0
671 -656 -657  0
-671 656  0
-671 657  0
672 -658 -659  0
-672 658  0
-672 659  0
-673 -497 660  0
673 497  0
673 -660  0
674 -644 -662  0
-674 644  0
-674 662  0
-675 663 664  0
675 -663  0
675 -664  0
-676 665 559  0
676 -665  0
676 -559  0
677 -667 -668  0
-677 667  0
-677 668  0
678 -669 -670  0
-678 669  0
-678 670  0
679 -556 -672  0
-679 556  0
-679 672  0
680 -673 -661  0
-680 673  0
-680 661  0
681 -498 -675  0
-681 498  0
-681 675  0
-682 -8 677  0
682 8  0
682 -677  0
-683 8 677  0
683 -8  0
683 -677  0
-684 678 330  0
684 -678  0
684 -330  0
-685 681 648  0
685 -681  0
685 -648  0
-686 13 682  0
686 -13  0
686 -682  0
-687 -13 683  0
687 13  0
687 -683  0
688 -684 -655  0
-688 684  0
-688 655  0
-689 674 685  0
689 -674  0
689 -685  0
-690 -685 676  0
690 685  0
690 -676  0
691 -686 -687  0
-691 686  0
-691 687  0
-692 -502 688  0
692 502  0
692 -688  0
-693 -685 679  0
693 685  0
693 -679  0
-694 680 685  0
694 -680  0
694 -685  0
695 -689 -690  0
-695 689  0
-695 690  0
-696 502 691  0
696 -502  0
696 -691  0
697 -693 -694  0
-697 693  0
-697 694  0
-698 5 695  0
698 -5  0
698 -695  0
-699 -2 695  0
699 2  0
699 -695  0
-700 2 695  0
700 -2  0
700 -695  0
701 -696 -692  0
-701 696  0
-701 692  0
-702 4 695  0
702 -4  0
702 -695  0
-703 -4 695  0
703 4  0
703 -695  0
-704 332 695  0
704 -332  0
704 -695  0
705 -2 -697  0
-705 2  0
-705 697  0
706 2 -697  0
-706 -2  0
-706 697  0
-707 5 697  0
707 -5  0
707 -697  0
-708 -4 697  0
708 4  0
708 -697  0
-709 4 697  0
709 -4  0
709 -697  0
-710 697 332  0
710 -697  0
710 -332  0
-711 15 699  0
711 -15  0
711 -699  0
-712 -15 700  0
712 15  0
712 -700  0
-713 -15 699  0
713 15  0
713 -699  0
-714 15 700  0
714 -15  0
714 -700  0
-715 15 705  0
715 -15  0
715 -705  0
-716 -15 706  0
716 15  0
716 -706  0
-717 -15 705  0
717 15  0
717 -705  0
-718 15 706  0
718 -15  0
718 -706  0
719 -711 -712  0
-719 711  0
-719 712  0
720 -713 -714  0
-720 713  0
-720 714  0
721 -715 -716  0
-721 715  0
-721 716  0
722 -717 -718  0
-722 717  0
-722 718  0
-723 -5 719  0
723 5  0
723 -719  0
-724 -5 720  0
724 5  0
724 -720  0
-725 -5 721  0
725 5  0
725 -721  0
726 -5 -722  0
-726 5  0
-726 722  0
727 -698 -723  0
-727 698  0
-727 723  0
-728 -495 724  0
728 495  0
728 -724  0
-729 724 495  0
729 -724  0
729 -495  0
730 -725 -707  0
-730 725  0
-730 707  0
-731 -495 726  0
731 495  0
731 -726  0
-732 726 495  0
732 -726  0
732 -495  0
-733 495 727  0
733 -495  0
733 -727  0
-734 -495 727  0
734 495  0
734 -727  0
-735 730 495  0
735 -730  0
735 -495  0
-736 -495 730  0
736 495  0
736 -730  0
737 -733 -728  0
-737 733  0
-737 728  0
738 -734 -729  0
-738 734  0
-738 729  0
739 -735 -731  0
-739 735  0
-739 731  0
740 -732 -736  0
-740 732  0
-740 736  0
-741 737 666  0
741 -737  0
741 -666  0
-742 332 738  0
742 -332  0
742 -738  0
-743 -4 738  0
743 4  0
743 -738  0
-744 4 738  0
744 -4  0
744 -738  0
745 -671 -739  0
-745 671  0
-745 739  0
-746 332 740  0
746 -332  0
746 -740  0
-747 4 740  0
747 -4  0
747 -740  0
-748 -4 740  0
748 4  0
748 -740  0
-749 741 701  0
749 -741  0
749 -701  0
750 -702 -743  0
-750 702  0
-750 743  0
751 -703 -744  0
-751 703  0
-751 744  0
-752 745 701  0
752 -745  0
752 -701  0
753 -747 -708  0
-753 747  0
-753 708  0
754 -709 -748  0
-754 709  0
-754 748  0
-755 -13 750  0
755 13  0
755 -750  0
-756 13 751  0
756 -13  0
756 -751  0
-757 -13 751  0
757 13  0
757 -751  0
-758 13 750  0
758 -13  0
758 -750  0
-759 13 753  0
759 -13  0
759 -753  0
-760 -13 754  0
760 13  0
760 -754  0
-761 13 754  0
761 -13  0
761 -754  0
-762 -13 753  0
762 13  0
762 -753  0
763 -755 -756  0
-763 755  0
-763 756  0
764 -757 -758  0
-764 757  0
-764 758  0
765 -759 -760  0
-765 759  0
-765 760  0
766 -761 -762  0
-766 761  0
-766 762  0
-767 763 -332  0
767 -763  0
767 332  0
-768 764 -332  0
768 -764  0
768 332  0
-769 -332 765  0
769 332  0
769 -765  0
-770 766 -332  0
770 -766  0
770 332  0
771 -742 -767  0
-771 742  0
-771 767  0
772 -704 -768  0
-772 704  0
-772 768  0
773 -746 -769  0
-773 746  0
-773 769  0
774 -710 -770  0
-774 710  0
-774 770  0
-775 504 771  0
775 -504  0
775 -771  0
-776 772 -504  0
776 -772  0
776 504  0
-777 504 773  0
777 -504  0
777 -773  0
-778 774 -504  0
778 -774  0
778 504  0
779 -775 -776  0
-779 775  0
-779 776  0
780 -777 -778  0
-780 777  0
-780 778  0
-781 779 -701  0
781 -779  0
781 701  0
-782 780 -701  0
782 -780  0
782 701  0
783 -749 -781  0
-783 749  0
-783 781  0
784 -752 -782  0
-784 752  0
-784 782  0
-785 627 783  0
785 -627  0
785 -783  0
-786 784 -627  0
786 -784  0
786 627  0
787 -785 -786  0
-787 785  0
-787 786  0
